c *********************************
c * Circuit generated by BenCGen
c *
c * Parity_65
c *
c * Ports with 1 gate(s): 1
c * Ports with 2 gate(s): 65
c * Total gates: 66
c *********************************
p cnf 131 261
1 68 0
-1 -68 0
1 -67 0
68 -67 0
-1 -68 67 0
1 2 -69 0
-1 2 69 0
1 -2 69 0
-1 -2 -69 0
3 4 -70 0
-3 4 70 0
3 -4 70 0
-3 -4 -70 0
5 6 -71 0
-5 6 71 0
5 -6 71 0
-5 -6 -71 0
7 8 -72 0
-7 8 72 0
7 -8 72 0
-7 -8 -72 0
9 10 -73 0
-9 10 73 0
9 -10 73 0
-9 -10 -73 0
11 12 -74 0
-11 12 74 0
11 -12 74 0
-11 -12 -74 0
13 14 -75 0
-13 14 75 0
13 -14 75 0
-13 -14 -75 0
15 16 -76 0
-15 16 76 0
15 -16 76 0
-15 -16 -76 0
17 18 -77 0
-17 18 77 0
17 -18 77 0
-17 -18 -77 0
19 20 -78 0
-19 20 78 0
19 -20 78 0
-19 -20 -78 0
21 22 -79 0
-21 22 79 0
21 -22 79 0
-21 -22 -79 0
23 24 -80 0
-23 24 80 0
23 -24 80 0
-23 -24 -80 0
25 26 -81 0
-25 26 81 0
25 -26 81 0
-25 -26 -81 0
27 28 -82 0
-27 28 82 0
27 -28 82 0
-27 -28 -82 0
29 30 -83 0
-29 30 83 0
29 -30 83 0
-29 -30 -83 0
31 32 -84 0
-31 32 84 0
31 -32 84 0
-31 -32 -84 0
33 34 -85 0
-33 34 85 0
33 -34 85 0
-33 -34 -85 0
35 36 -86 0
-35 36 86 0
35 -36 86 0
-35 -36 -86 0
37 38 -87 0
-37 38 87 0
37 -38 87 0
-37 -38 -87 0
39 40 -88 0
-39 40 88 0
39 -40 88 0
-39 -40 -88 0
41 42 -89 0
-41 42 89 0
41 -42 89 0
-41 -42 -89 0
43 44 -90 0
-43 44 90 0
43 -44 90 0
-43 -44 -90 0
45 46 -91 0
-45 46 91 0
45 -46 91 0
-45 -46 -91 0
47 48 -92 0
-47 48 92 0
47 -48 92 0
-47 -48 -92 0
49 50 -93 0
-49 50 93 0
49 -50 93 0
-49 -50 -93 0
51 52 -94 0
-51 52 94 0
51 -52 94 0
-51 -52 -94 0
53 54 -95 0
-53 54 95 0
53 -54 95 0
-53 -54 -95 0
55 56 -96 0
-55 56 96 0
55 -56 96 0
-55 -56 -96 0
57 58 -97 0
-57 58 97 0
57 -58 97 0
-57 -58 -97 0
59 60 -98 0
-59 60 98 0
59 -60 98 0
-59 -60 -98 0
61 62 -99 0
-61 62 99 0
61 -62 99 0
-61 -62 -99 0
63 64 -100 0
-63 64 100 0
63 -64 100 0
-63 -64 -100 0
69 70 -101 0
-69 70 101 0
69 -70 101 0
-69 -70 -101 0
71 72 -102 0
-71 72 102 0
71 -72 102 0
-71 -72 -102 0
73 74 -103 0
-73 74 103 0
73 -74 103 0
-73 -74 -103 0
75 76 -104 0
-75 76 104 0
75 -76 104 0
-75 -76 -104 0
77 78 -105 0
-77 78 105 0
77 -78 105 0
-77 -78 -105 0
79 80 -106 0
-79 80 106 0
79 -80 106 0
-79 -80 -106 0
81 82 -107 0
-81 82 107 0
81 -82 107 0
-81 -82 -107 0
83 84 -108 0
-83 84 108 0
83 -84 108 0
-83 -84 -108 0
85 86 -109 0
-85 86 109 0
85 -86 109 0
-85 -86 -109 0
87 88 -110 0
-87 88 110 0
87 -88 110 0
-87 -88 -110 0
89 90 -111 0
-89 90 111 0
89 -90 111 0
-89 -90 -111 0
91 92 -112 0
-91 92 112 0
91 -92 112 0
-91 -92 -112 0
93 94 -113 0
-93 94 113 0
93 -94 113 0
-93 -94 -113 0
95 96 -114 0
-95 96 114 0
95 -96 114 0
-95 -96 -114 0
97 98 -115 0
-97 98 115 0
97 -98 115 0
-97 -98 -115 0
99 100 -116 0
-99 100 116 0
99 -100 116 0
-99 -100 -116 0
101 102 -117 0
-101 102 117 0
101 -102 117 0
-101 -102 -117 0
103 104 -118 0
-103 104 118 0
103 -104 118 0
-103 -104 -118 0
105 106 -119 0
-105 106 119 0
105 -106 119 0
-105 -106 -119 0
107 108 -120 0
-107 108 120 0
107 -108 120 0
-107 -108 -120 0
109 110 -121 0
-109 110 121 0
109 -110 121 0
-109 -110 -121 0
111 112 -122 0
-111 112 122 0
111 -112 122 0
-111 -112 -122 0
113 114 -123 0
-113 114 123 0
113 -114 123 0
-113 -114 -123 0
115 116 -124 0
-115 116 124 0
115 -116 124 0
-115 -116 -124 0
117 118 -125 0
-117 118 125 0
117 -118 125 0
-117 -118 -125 0
119 120 -126 0
-119 120 126 0
119 -120 126 0
-119 -120 -126 0
121 122 -127 0
-121 122 127 0
121 -122 127 0
-121 -122 -127 0
123 124 -128 0
-123 124 128 0
123 -124 128 0
-123 -124 -128 0
125 126 -129 0
-125 126 129 0
125 -126 129 0
-125 -126 -129 0
127 128 -130 0
-127 128 130 0
127 -128 130 0
-127 -128 -130 0
129 130 -131 0
-129 130 131 0
129 -130 131 0
-129 -130 -131 0
131 65 -66 0
-131 65 66 0
131 -65 66 0
-131 -65 -66 0
